networks/zoo_88_379/zoo_88_379.sol
<?xml version = "1.0" encoding="UTF-8" standalone="yes"?>
<CPLEXSolution version="1.2">
 <header
   problemName="networks/zoo_88_379/zoo_88_379.lp"
   solutionName="incumbent"
   solutionIndex="-1"
   objectiveValue="43"
   solutionTypeValue="3"
   solutionTypeString="primal"
   solutionStatusValue="101"
   solutionStatusString="integer optimal solution"
   solutionMethodString="mip"
   primalFeasible="1"
   dualFeasible="1"
   MIPNodes="0"
   MIPIterations="5057"
   writeLevel="3"/>
 <quality
   epInt="1.0000000000000001e-05"
   epRHS="9.9999999999999995e-07"
   maxIntInfeas="0"
   maxPrimalInfeas="8.8817841970012523e-16"
   maxX="4"
   maxSlack="10"/>
 <variables>
  <variable name="Y(16,2)" index="991" value="1"/>
  <variable name="Y(19,44)" index="1231" value="1"/>
  <variable name="Y(24,5)" index="1522" value="1"/>
  <variable name="Y(30,11)" index="1924" value="1"/>
  <variable name="Y(49,18)" index="3185" value="1"/>
  <variable name="Y(61,5)" index="3964" value="1"/>
  <variable name="Y(68,16)" index="4437" value="1"/>
  <variable name="Y(75,36)" index="4919" value="1"/>
  <variable name="Y(82,20)" index="5365" value="1"/>
  <variable name="Y(104,6)" index="6803" value="1"/>
  <variable name="Y(116,38)" index="7627" value="1"/>
  <variable name="Y(122,8)" index="7993" value="1"/>
  <variable name="Y(135,13)" index="8856" value="1"/>
  <variable name="Y(139,14)" index="9121" value="1"/>
  <variable name="Y(150,28)" index="9861" value="1"/>
  <variable name="Y(156,1)" index="10230" value="1"/>
  <variable name="Y(160,10)" index="10503" value="1"/>
  <variable name="Y(172,30)" index="11315" value="1"/>
  <variable name="Y(177,19)" index="11634" value="1"/>
  <variable name="Y(179,1)" index="11748" value="1"/>
  <variable name="Y(190,42)" index="12515" value="1"/>
  <variable name="Y(195,4)" index="12807" value="1"/>
  <variable name="Y(201,8)" index="13207" value="1"/>
  <variable name="Y(202,24)" index="13289" value="1"/>
  <variable name="Y(205,25)" index="13488" value="1"/>
  <variable name="Y(208,26)" index="13687" value="1"/>
  <variable name="Y(213,44)" index="14035" value="1"/>
  <variable name="Y(217,7)" index="14262" value="1"/>
  <variable name="Y(228,44)" index="15025" value="1"/>
  <variable name="Y(241,12)" index="15851" value="1"/>
  <variable name="Y(249,8)" index="16375" value="1"/>
  <variable name="Y(254,41)" index="16738" value="1"/>
  <variable name="Y(255,33)" index="16796" value="1"/>
  <variable name="Y(258,4)" index="16965" value="1"/>
  <variable name="Y(271,15)" index="17834" value="1"/>
  <variable name="Y(291,35)" index="19174" value="1"/>
  <variable name="Y(297,38)" index="19573" value="1"/>
  <variable name="Y(312,38)" index="20563" value="1"/>
  <variable name="Y(313,39)" index="20630" value="1"/>
  <variable name="Y(350,19)" index="23052" value="1"/>
  <variable name="Y(355,41)" index="23404" value="1"/>
  <variable name="Y(356,40)" index="23469" value="1"/>
  <variable name="Y(359,43)" index="23670" value="1"/>
  <variable name="X(1,4,350)" index="25363" value="1"/>
  <variable name="X(1,7,217)" index="25609" value="1"/>
  <variable name="X(1,16,68)" index="25839" value="1"/>
  <variable name="X(1,41,156)" index="26306" value="1"/>
  <variable name="X(1,45,179)" index="26708" value="1"/>
  <variable name="X(2,41,16)" index="26924" value="1"/>
  <variable name="X(3,44,19)" index="27306" value="1"/>
  <variable name="X(4,1,195)" index="27861" value="1"/>
  <variable name="X(4,19,350)" index="28395" value="1"/>
  <variable name="X(4,41,249)" index="28673" value="1"/>
  <variable name="X(4,48,258)" index="29061" value="1"/>
  <variable name="X(5,8,24)" index="29206" value="1"/>
  <variable name="X(5,49,61)" index="29622" value="1"/>
  <variable name="X(6,7,30)" index="29970" value="1"/>
  <variable name="X(6,8,201)" index="30520" value="1"/>
  <variable name="X(6,50,104)" index="30802" value="1"/>
  <variable name="X(7,1,179)" index="31256" value="1"/>
  <variable name="X(7,6,104)" index="31560" value="1"/>
  <variable name="X(7,8,49)" index="31884" value="1"/>
  <variable name="X(7,10,30)" index="32244" value="1"/>
  <variable name="X(7,51,217)" index="32810" value="1"/>
  <variable name="X(8,5,61)" index="33033" value="1"/>
  <variable name="X(8,6,122)" index="33473" value="1"/>
  <variable name="X(8,7,179)" index="33909" value="1"/>
  <variable name="X(8,10,172)" index="34281" value="1"/>
  <variable name="X(8,12,241)" index="34729" value="1"/>
  <variable name="X(8,18,49)" index="34916" value="1"/>
  <variable name="X(8,20,82)" index="35328" value="1"/>
  <variable name="X(8,41,201)" index="35826" value="1"/>
  <variable name="X(8,44,116)" index="36120" value="1"/>
  <variable name="X(8,52,249)" index="36632" value="1"/>
  <variable name="X(9,8,82)" index="36844" value="1"/>
  <variable name="X(10,7,104)" index="37245" value="1"/>
  <variable name="X(10,8,241)" index="37761" value="1"/>
  <variable name="X(10,11,30)" index="37929" value="1"/>
  <variable name="X(10,30,172)" index="38450" value="1"/>
  <variable name="X(10,54,160)" index="38817" value="1"/>
  <variable name="X(11,10,104)" index="39140" value="1"/>
  <variable name="X(11,55,30)" index="39445" value="1"/>
  <variable name="X(12,8,122)" index="39916" value="1"/>
  <variable name="X(12,56,241)" index="40414" value="1"/>
  <variable name="X(13,41,135)" index="40687" value="1"/>
  <variable name="X(14,41,139)" index="41070" value="1"/>
  <variable name="X(15,40,150)" index="41460" value="1"/>
  <variable name="X(15,59,271)" index="41960" value="1"/>
  <variable name="X(16,1,156)" index="42224" value="1"/>
  <variable name="X(16,60,68)" index="42515" value="1"/>
  <variable name="X(17,29,160)" index="42986" value="1"/>
  <variable name="X(18,8,172)" index="43377" value="1"/>
  <variable name="X(18,62,49)" index="43633" value="1"/>
  <variable name="X(19,4,177)" index="44140" value="1"/>
  <variable name="X(19,63,350)" index="44692" value="1"/>
  <variable name="X(20,8,179)" index="44900" value="1"/>
  <variable name="X(20,64,82)" index="45182" value="1"/>
  <variable name="X(21,42,190)" index="45669" value="1"/>
  <variable name="X(22,4,195)" index="46053" value="1"/>
  <variable name="X(23,6,201)" index="46438" value="1"/>
  <variable name="X(24,8,202)" index="46818" value="1"/>
  <variable name="X(25,8,205)" index="47200" value="1"/>
  <variable name="X(26,41,208)" index="47582" value="1"/>
  <variable name="X(27,44,213)" index="47966" value="1"/>
  <variable name="X(28,41,228)" index="48360" value="1"/>
  <variable name="X(28,72,150)" index="48661" value="1"/>
  <variable name="X(29,10,160)" index="49050" value="1"/>
  <variable name="X(30,10,241)" index="49510" value="1"/>
  <variable name="X(30,74,172)" index="49820" value="1"/>
  <variable name="X(31,4,249)" index="50276" value="1"/>
  <variable name="X(32,41,254)" index="50660" value="1"/>
  <variable name="X(33,41,255)" index="51040" value="1"/>
  <variable name="X(34,41,258)" index="51422" value="1"/>
  <variable name="X(35,41,271)" index="51814" value="1"/>
  <variable name="X(35,79,291)" index="52213" value="1"/>
  <variable name="X(36,41,291)" index="52592" value="1"/>
  <variable name="X(36,80,75)" index="52755" value="1"/>
  <variable name="X(37,38,297)" index="53356" value="1"/>
  <variable name="X(38,41,297)" index="53735" value="1"/>
  <variable name="X(38,44,312)" index="54129" value="1"/>
  <variable name="X(38,82,116)" index="54312" value="1"/>
  <variable name="X(39,40,313)" index="54888" value="1"/>
  <variable name="X(40,15,271)" index="55225" value="1"/>
  <variable name="X(40,41,150)" index="55483" value="1"/>
  <variable name="X(40,84,356)" index="56068" value="1"/>
  <variable name="X(41,1,217)" index="56308" value="1"/>
  <variable name="X(41,4,258)" index="56728" value="1"/>
  <variable name="X(41,8,249)" index="57098" value="1"/>
  <variable name="X(41,28,150)" index="57378" value="1"/>
  <variable name="X(41,35,291)" index="57898" value="1"/>
  <variable name="X(41,36,75)" index="58061" value="1"/>
  <variable name="X(41,38,355)" index="58720" value="1"/>
  <variable name="X(41,40,271)" index="59015" value="1"/>
  <variable name="X(41,44,228)" index="59351" value="1"/>
  <variable name="X(41,85,254)" index="59756" value="1"/>
  <variable name="X(42,1,350)" index="60231" value="1"/>
  <variable name="X(42,40,356)" index="60616" value="1"/>
  <variable name="X(42,41,190)" index="60829" value="1"/>
  <variable name="X(43,41,359)" index="61377" value="1"/>
  <variable name="X(44,8,19)" index="61416" value="1"/>
  <variable name="X(44,38,116)" index="61892" value="1"/>
  <variable name="X(44,41,213)" index="62368" value="1"/>
  <variable name="X(44,88,228)" index="62762" value="1"/>
  <variable name="C(19,44)" index="62970" value="1"/>
  <variable name="C(30,7)" index="63003" value="1"/>
  <variable name="C(30,10)" index="63004" value="2"/>
  <variable name="C(30,11)" index="63005" value="3"/>
  <variable name="C(49,8)" index="63067" value="1"/>
  <variable name="C(49,18)" index="63068" value="2"/>
  <variable name="C(61,5)" index="63108" value="1"/>
  <variable name="C(68,16)" index="63127" value="1"/>
  <variable name="C(75,36)" index="63147" value="1"/>
  <variable name="C(82,9)" index="63163" value="2"/>
  <variable name="C(82,8)" index="63164" value="3"/>
  <variable name="C(82,20)" index="63165" value="4"/>
  <variable name="C(104,10)" index="63238" value="1"/>
  <variable name="C(104,7)" index="63239" value="1.9999999999999991"/>
  <variable name="C(104,6)" index="63240" value="2.9999999999999991"/>
  <variable name="C(116,44)" index="63289" value="1"/>
  <variable name="C(116,38)" index="63290" value="2"/>
  <variable name="C(122,8)" index="63313" value="1"/>
  <variable name="C(150,40)" index="63419" value="1"/>
  <variable name="C(150,41)" index="63420" value="2"/>
  <variable name="C(150,28)" index="63421" value="3"/>
  <variable name="C(156,1)" index="63442" value="1"/>
  <variable name="C(160,29)" index="63457" value="1"/>
  <variable name="C(160,10)" index="63458" value="2"/>
  <variable name="C(172,8)" index="63498" value="1"/>
  <variable name="C(172,10)" index="63499" value="2"/>
  <variable name="C(172,30)" index="63500" value="3"/>
  <variable name="C(179,8)" index="63523" value="1"/>
  <variable name="C(179,7)" index="63524" value="2"/>
  <variable name="C(179,1)" index="63525" value="3"/>
  <variable name="C(190,42)" index="63559" value="1"/>
  <variable name="C(195,4)" index="63580" value="1"/>
  <variable name="C(201,6)" index="63604" value="1"/>
  <variable name="C(201,8)" index="63605" value="2"/>
  <variable name="C(213,44)" index="63641" value="1"/>
  <variable name="C(217,1)" index="63655" value="1"/>
  <variable name="C(217,7)" index="63656" value="2"/>
  <variable name="C(228,41)" index="63695" value="1"/>
  <variable name="C(228,44)" index="63696" value="2"/>
  <variable name="C(241,10)" index="63740" value="1"/>
  <variable name="C(241,8)" index="63741" value="2"/>
  <variable name="C(241,12)" index="63742" value="3"/>
  <variable name="C(249,4)" index="63777" value="1"/>
  <variable name="C(249,41)" index="63778" value="2"/>
  <variable name="C(249,8)" index="63779" value="3"/>
  <variable name="C(254,41)" index="63796" value="1"/>
  <variable name="C(258,41)" index="63807" value="1"/>
  <variable name="C(258,4)" index="63808" value="2"/>
  <variable name="C(271,41)" index="63853" value="1"/>
  <variable name="C(271,40)" index="63854" value="2"/>
  <variable name="C(271,15)" index="63855" value="3"/>
  <variable name="C(291,41)" index="63927" value="1"/>
  <variable name="C(291,35)" index="63928" value="2"/>
  <variable name="C(297,38)" index="63947" value="1"/>
  <variable name="C(350,1)" index="64121" value="1"/>
  <variable name="C(350,4)" index="64122" value="2"/>
  <variable name="C(350,19)" index="64123" value="3"/>
  <variable name="C(356,40)" index="64143" value="1"/>
 </variables>
</CPLEXSolution>
